(set-info :source |printed by MathSAT|)
(declare-fun |!{$(in_main#0)<N>}| () Int)
(declare-fun |!{$(in_main#0)<N>}.next| () Int)
(declare-fun |!{$(in_main#0)<a>}| () Int)
(declare-fun |!{$(in_main#0)<a>}.next| () Int)
(declare-fun |!{$(in_main#0)<i>}| () Int)
(declare-fun |!{$(in_main#0)<i>}.next| () Int)
(declare-fun |!{$(in_main#0)<x>}| () Int)
(declare-fun |!{$(in_main#0)<x>}.next| () Int)
(declare-fun |!{$(in_main#0)<a1.1>}| () (Array Int Int))
(declare-fun |!{$(in_main#0)<a1.1>}.next| () (Array Int Int))
(declare-fun |!{$(in_main#0)<a2.2>}| () (Array Int Int))
(declare-fun |!{$(in_main#0)<a2.2>}.next| () (Array Int Int))
(declare-fun |!{$(in_main#0)<$(in___VERIFIER_nondet_int#0)<h#<__VERIFIER_nondet_int.return>>>}| () Int)
(declare-fun |!{$(in_main#0)<$(in___VERIFIER_nondet_int#1)<h#<__VERIFIER_nondet_int.return>>>}| () Int)
(declare-fun !pc () Int)
(declare-fun !pc.next () Int)
(declare-fun |%{$(in_main#0)<i>}#1| () Int)
(declare-fun |%{$(in_main#0)<x>}#1| () Int)
(declare-fun |%{$(in_main#0)<a1.1>}#1| () (Array Int Int))
(declare-fun |%{$(in_main#0)<a2.2>}#1| () (Array Int Int))
(define-fun .def_34 () Int (! !pc :next !pc.next))
(define-fun .def_37 () Bool (! (= .def_34 2) :init true))
(define-fun .def_171 () Bool (= .def_34 28))
(define-fun .def_144 () Bool (= !pc.next 49))
(define-fun .def_174 () Bool (and .def_144 .def_171))
(define-fun .def_165 () Bool (= |!{$(in_main#0)<i>}.next| 0))
(define-fun .def_10 () Int (! |!{$(in_main#0)<a>}| :next |!{$(in_main#0)<a>}.next|))
(define-fun .def_78 () Bool (= .def_10 |!{$(in_main#0)<a>}.next|))
(define-fun .def_8 () Int (! |!{$(in_main#0)<N>}| :next |!{$(in_main#0)<N>}.next|))
(define-fun .def_76 () Bool (= .def_8 |!{$(in_main#0)<N>}.next|))
(define-fun .def_89 () Bool (and .def_76 .def_78))
(define-fun .def_166 () Bool (and .def_89 .def_165))
(define-fun .def_14 () Int (! |!{$(in_main#0)<x>}| :next |!{$(in_main#0)<x>}.next|))
(define-fun .def_82 () Bool (= .def_14 |!{$(in_main#0)<x>}.next|))
(define-fun .def_167 () Bool (and .def_82 .def_166))
(define-fun .def_16 () (Array Int Int) (! |!{$(in_main#0)<a1.1>}| :next |!{$(in_main#0)<a1.1>}.next|))
(define-fun .def_84 () Bool (= .def_16 |!{$(in_main#0)<a1.1>}.next|))
(define-fun .def_168 () Bool (and .def_84 .def_167))
(define-fun .def_18 () (Array Int Int) (! |!{$(in_main#0)<a2.2>}| :next |!{$(in_main#0)<a2.2>}.next|))
(define-fun .def_86 () Bool (= .def_18 |!{$(in_main#0)<a2.2>}.next|))
(define-fun .def_169 () Bool (and .def_86 .def_168))
(define-fun .def_151 () Bool (<= .def_8 .def_10))
(define-fun .def_170 () Bool (and .def_151 .def_169))
(define-fun .def_175 () Bool (and .def_170 .def_174))
(define-fun .def_62 () Bool (= !pc.next 28))
(define-fun .def_172 () Bool (and .def_62 .def_171))
(define-fun .def_153 () (Array Int Int) (store .def_16 .def_10 |!{$(in_main#0)<$(in___VERIFIER_nondet_int#1)<h#<__VERIFIER_nondet_int.return>>>}|))
(define-fun .def_161 () Bool (= |!{$(in_main#0)<a1.1>}.next| .def_153))
(define-fun .def_155 () Int (* (- 1) |!{$(in_main#0)<a>}.next|))
(define-fun .def_156 () Int (+ .def_10 .def_155))
(define-fun .def_157 () Bool (= .def_156 (- 1)))
(define-fun .def_158 () Bool (and .def_76 .def_157))
(define-fun .def_12 () Int (! |!{$(in_main#0)<i>}| :next |!{$(in_main#0)<i>}.next|))
(define-fun .def_80 () Bool (= .def_12 |!{$(in_main#0)<i>}.next|))
(define-fun .def_159 () Bool (and .def_80 .def_158))
(define-fun .def_160 () Bool (and .def_82 .def_159))
(define-fun .def_162 () Bool (and .def_160 .def_161))
(define-fun .def_163 () Bool (and .def_86 .def_162))
(define-fun .def_152 () Bool (not .def_151))
(define-fun .def_164 () Bool (and .def_152 .def_163))
(define-fun .def_173 () Bool (and .def_164 .def_172))
(define-fun .def_176 () Bool (or .def_173 .def_175))
(define-fun .def_143 () Bool (= .def_34 49))
(define-fun .def_112 () Bool (= !pc.next 63))
(define-fun .def_147 () Bool (and .def_112 .def_143))
(define-fun .def_137 () Bool (= |!{$(in_main#0)<x>}.next| 0))
(define-fun .def_90 () Bool (and .def_80 .def_89))
(define-fun .def_138 () Bool (and .def_90 .def_137))
(define-fun .def_139 () Bool (and .def_84 .def_138))
(define-fun .def_140 () Bool (and .def_86 .def_139))
(define-fun .def_123 () Bool (<= .def_8 .def_12))
(define-fun .def_141 () Bool (and .def_123 .def_140))
(define-fun .def_148 () Bool (and .def_141 .def_147))
(define-fun .def_145 () Bool (and .def_143 .def_144))
(define-fun .def_125 () Int (select .def_16 .def_12))
(define-fun .def_126 () (Array Int Int) (store .def_18 .def_12 .def_125))
(define-fun .def_134 () Bool (= |!{$(in_main#0)<a2.2>}.next| .def_126))
(define-fun .def_128 () Int (* (- 1) |!{$(in_main#0)<i>}.next|))
(define-fun .def_129 () Int (+ .def_12 .def_128))
(define-fun .def_130 () Bool (= .def_129 (- 1)))
(define-fun .def_131 () Bool (and .def_89 .def_130))
(define-fun .def_132 () Bool (and .def_82 .def_131))
(define-fun .def_133 () Bool (and .def_84 .def_132))
(define-fun .def_135 () Bool (and .def_133 .def_134))
(define-fun .def_124 () Bool (not .def_123))
(define-fun .def_136 () Bool (and .def_124 .def_135))
(define-fun .def_146 () Bool (and .def_136 .def_145))
(define-fun .def_149 () Bool (or .def_146 .def_148))
(define-fun .def_116 () Bool (= !pc.next 0))
(define-fun .def_107 () Bool (= .def_34 63))
(define-fun .def_117 () Bool (and .def_107 .def_116))
(define-fun .def_65 () Bool (<= .def_8 .def_14))
(define-fun .def_100 () Bool (and .def_65 .def_76))
(define-fun .def_101 () Bool (and .def_78 .def_100))
(define-fun .def_102 () Bool (and .def_80 .def_101))
(define-fun .def_103 () Bool (and .def_82 .def_102))
(define-fun .def_104 () Bool (and .def_84 .def_103))
(define-fun .def_105 () Bool (and .def_86 .def_104))
(define-fun .def_118 () Bool (and .def_105 .def_117))
(define-fun .def_113 () Bool (and .def_107 .def_112))
(define-fun .def_92 () Int (* (- 1) |!{$(in_main#0)<x>}.next|))
(define-fun .def_93 () Int (+ .def_14 .def_92))
(define-fun .def_94 () Bool (= .def_93 (- 1)))
(define-fun .def_95 () Bool (and .def_90 .def_94))
(define-fun .def_96 () Bool (and .def_84 .def_95))
(define-fun .def_97 () Bool (and .def_86 .def_96))
(define-fun .def_68 () Int (select .def_18 .def_14))
(define-fun .def_67 () Int (select .def_16 .def_14))
(define-fun .def_69 () Bool (= .def_67 .def_68))
(define-fun .def_70 () Int (ite .def_69 1 0))
(define-fun .def_71 () Bool (= .def_70 0))
(define-fun .def_72 () Bool (not .def_71))
(define-fun .def_98 () Bool (and .def_72 .def_97))
(define-fun .def_66 () Bool (not .def_65))
(define-fun .def_99 () Bool (and .def_66 .def_98))
(define-fun .def_114 () Bool (and .def_99 .def_113))
(define-fun .def_109 () Bool (= !pc.next 83))
(define-fun .def_110 () Bool (and .def_107 .def_109))
(define-fun .def_77 () Bool (and .def_71 .def_76))
(define-fun .def_79 () Bool (and .def_77 .def_78))
(define-fun .def_81 () Bool (and .def_79 .def_80))
(define-fun .def_83 () Bool (and .def_81 .def_82))
(define-fun .def_85 () Bool (and .def_83 .def_84))
(define-fun .def_87 () Bool (and .def_85 .def_86))
(define-fun .def_88 () Bool (and .def_66 .def_87))
(define-fun .def_111 () Bool (and .def_88 .def_110))
(define-fun .def_115 () Bool (or .def_111 .def_114))
(define-fun .def_119 () Bool (or .def_115 .def_118))
(define-fun .def_63 () Bool (and .def_37 .def_62))
(define-fun .def_59 () Bool (= |!{$(in_main#0)<a2.2>}.next| |%{$(in_main#0)<a2.2>}#1|))
(define-fun .def_57 () Bool (= |!{$(in_main#0)<a1.1>}.next| |%{$(in_main#0)<a1.1>}#1|))
(define-fun .def_55 () Bool (= |!{$(in_main#0)<x>}.next| |%{$(in_main#0)<x>}#1|))
(define-fun .def_53 () Bool (= |!{$(in_main#0)<i>}.next| |%{$(in_main#0)<i>}#1|))
(define-fun .def_51 () Bool (= |!{$(in_main#0)<a>}.next| 0))
(define-fun .def_50 () Bool (= |!{$(in_main#0)<N>}.next| |!{$(in_main#0)<$(in___VERIFIER_nondet_int#0)<h#<__VERIFIER_nondet_int.return>>>}|))
(define-fun .def_52 () Bool (and .def_50 .def_51))
(define-fun .def_54 () Bool (and .def_52 .def_53))
(define-fun .def_56 () Bool (and .def_54 .def_55))
(define-fun .def_58 () Bool (and .def_56 .def_57))
(define-fun .def_60 () Bool (and .def_58 .def_59))
(define-fun .def_64 () Bool (and .def_60 .def_63))
(define-fun .def_120 () Bool (or .def_64 .def_119))
(define-fun .def_150 () Bool (or .def_120 .def_149))
(define-fun .def_177 () Bool (! (or .def_150 .def_176) :trans true))
(define-fun .def_121 () Bool (= .def_34 83))
(define-fun .def_178 () Bool (! (not .def_121) :invar-property 0 :invar-property-name ||))
(assert true)
